Content written to results/level_1/variant_random_all_theorems_model_o1_problem_192_run_0_to_verify.txt
predicates to add:
Line
predicates to add:
Angle
predicates to add:
Line
predicates to add:
Line
predicates to add:
Angle
predicates to add:
Line
predicates to add:
Line
predicates to add:
Line
predicates to add:
Angle
predicates to add:
Line
predicates to add:
Line
predicates to add:
Angle
predicates to add:
Line
predicates to add:
Line
predicates to add:
Circle
predicates to add:
Line
predicates to add:
Angle
predicates to add:
Line
predicates to add:
Line
predicates to add:
Line
predicates to add:
Line
predicates to add:
Line
predicates to add:
Line
predicates to add:
Line
predicates to add:
Line
predicates to add:
Angle
predicates to add:
Line
predicates to add:
Angle
predicates to add:
Line
predicates to add:
Line
predicates to add:
Angle
predicates to add:
Line
predicates to add:
Line
predicates to add:
Line
predicates to add:
Angle
predicates to add:
Line
predicates to add:
Angle
predicates to add:
Line
predicates to add:
Line
predicates to add:
Angle
predicates to add:
Line
predicates to add:
Line
predicates to add:
Angle
predicates to add:
Line
predicates to add:
Angle
predicates to add:
Line
predicates to add:
Angle
predicates to add:
Angle
predicates to add:
Angle
predicates to add:
Angle
predicates to add:
Angle
predicates to add:
Angle
predicates to add:
Line
predicates to add:
Line
predicates to add:
Angle
predicates to add:
Line
predicates to add:
Line
predicates to add:
Angle
predicates to add:
Line
predicates to add:
Line
predicates to add:
Angle
predicates to add:
Angle
predicates to add:
Angle
predicates to add:
Angle
predicates to add:
Angle
predicates to add:
Line
predicates to add:
Line
predicates to add:
Angle
predicates to add:
Line
predicates to add:
Line
predicates to add:
Angle
predicates to add:
Line
predicates to add:
Line
predicates to add:
Angle
predicates to add:
Line
predicates to add:
Line
predicates to add:
Equation
predicates to add:
Equation
predicates to add:
Equation
predicates to add:
Equation
Verifier result: ERROR_TIER: TIER1_THEOREM_CALL_SYNTAX_VIOLATION
Verification failed. Theorem <circle_property_circular_power_segment_and_segment_angle> branch error. Expected dict_keys(['1', '2']) but got None. Please rewrite your response, you should change only the call to theorem <circle_property_circular_power_segment_and_segment_angle> by adding the branch number from the dict_keys as the first argument
Model Answer:
RETRY_ANSWER:
22
RETRY_THEOREM_SEQUENCE:
1; circle_property_circular_power_segment_and_segment_angle(SRT,RUV,B); Cocircular(B,SUVT)&Collinear(RST)&Collinear(RUV); ["Equal(Sub(MeasureOfArc(BVT),MeasureOfArc(BSU)),Mul(MeasureOfAngle(SRU),2))"]
Retry attempt: 1
Content written to results/level_1/variant_random_all_theorems_model_o1_problem_192_run_0_to_verify.txt
predicates to add:
Line
predicates to add:
Angle
predicates to add:
Line
predicates to add:
Line
predicates to add:
Angle
predicates to add:
Line
predicates to add:
Line
predicates to add:
Line
predicates to add:
Angle
predicates to add:
Line
predicates to add:
Line
predicates to add:
Angle
predicates to add:
Line
predicates to add:
Line
predicates to add:
Circle
predicates to add:
Line
predicates to add:
Angle
predicates to add:
Line
predicates to add:
Line
predicates to add:
Line
predicates to add:
Line
predicates to add:
Line
predicates to add:
Line
predicates to add:
Line
predicates to add:
Line
predicates to add:
Angle
predicates to add:
Line
predicates to add:
Angle
predicates to add:
Line
predicates to add:
Line
predicates to add:
Angle
predicates to add:
Line
predicates to add:
Line
predicates to add:
Line
predicates to add:
Angle
predicates to add:
Line
predicates to add:
Angle
predicates to add:
Line
predicates to add:
Line
predicates to add:
Angle
predicates to add:
Line
predicates to add:
Line
predicates to add:
Angle
predicates to add:
Line
predicates to add:
Angle
predicates to add:
Line
predicates to add:
Angle
predicates to add:
Angle
predicates to add:
Angle
predicates to add:
Angle
predicates to add:
Angle
predicates to add:
Angle
predicates to add:
Line
predicates to add:
Line
predicates to add:
Angle
predicates to add:
Line
predicates to add:
Line
predicates to add:
Angle
predicates to add:
Line
predicates to add:
Line
predicates to add:
Angle
predicates to add:
Angle
predicates to add:
Angle
predicates to add:
Angle
predicates to add:
Angle
predicates to add:
Line
predicates to add:
Line
predicates to add:
Angle
predicates to add:
Line
predicates to add:
Line
predicates to add:
Angle
predicates to add:
Line
predicates to add:
Line
predicates to add:
Angle
predicates to add:
Line
predicates to add:
Line
predicates to add:
Equation
predicates to add:
Equation
predicates to add:
Equation
predicates to add:
Equation
Verifier result: ERROR_TIER: TIER1_THEOREM_CALL_SYNTAX_VIOLATION
Verification failed.
Theorem: circle_property_circular_power_segment_and_segment_angle(1,SRT,RUV,B)
The language model outputs the following premises: Cocircular(B,SUVT)&Collinear(RST)&Collinear(RUV)
The correct premises for the theorem: Cocircular(B,RUVT)&Collinear(RRT)&Collinear(RUV)
The language model outputs the following conclusions: Equal(Sub(MeasureOfArc(BVT),MeasureOfArc(BSU)),Mul(MeasureOfAngle(SRU),2))
The correct conclusions for the theorem: Equal(Sub(MeasureOfArc(BVT),MeasureOfArc(BRU)),Mul(MeasureOfAngle(RRU),2))

Model Answer:
RETRY_ANSWER:
22
RETRY_THEOREM_SEQUENCE:
1; circle_property_circular_power_segment_and_segment_angle(1,SRT,RUV,B); Cocircular(B,SUVT)&Collinear(RST)&Collinear(RUV); ["Equal(Sub(MeasureOfArc(BVT),MeasureOfArc(BSU)),Mul(MeasureOfAngle(SRU),2))"]
Retry attempt: 2
Content written to results/level_1/variant_random_all_theorems_model_o1_problem_192_run_0_to_verify.txt
predicates to add:
Line
predicates to add:
Angle
predicates to add:
Line
predicates to add:
Line
predicates to add:
Angle
predicates to add:
Line
predicates to add:
Line
predicates to add:
Line
predicates to add:
Angle
predicates to add:
Line
predicates to add:
Line
predicates to add:
Angle
predicates to add:
Line
predicates to add:
Line
predicates to add:
Circle
predicates to add:
Line
predicates to add:
Angle
predicates to add:
Line
predicates to add:
Line
predicates to add:
Line
predicates to add:
Line
predicates to add:
Line
predicates to add:
Line
predicates to add:
Line
predicates to add:
Line
predicates to add:
Angle
predicates to add:
Line
predicates to add:
Angle
predicates to add:
Line
predicates to add:
Line
predicates to add:
Angle
predicates to add:
Line
predicates to add:
Line
predicates to add:
Line
predicates to add:
Angle
predicates to add:
Line
predicates to add:
Angle
predicates to add:
Line
predicates to add:
Line
predicates to add:
Angle
predicates to add:
Line
predicates to add:
Line
predicates to add:
Angle
predicates to add:
Line
predicates to add:
Angle
predicates to add:
Line
predicates to add:
Angle
predicates to add:
Angle
predicates to add:
Angle
predicates to add:
Angle
predicates to add:
Angle
predicates to add:
Angle
predicates to add:
Line
predicates to add:
Line
predicates to add:
Angle
predicates to add:
Line
predicates to add:
Line
predicates to add:
Angle
predicates to add:
Line
predicates to add:
Line
predicates to add:
Angle
predicates to add:
Angle
predicates to add:
Angle
predicates to add:
Angle
predicates to add:
Angle
predicates to add:
Line
predicates to add:
Line
predicates to add:
Angle
predicates to add:
Line
predicates to add:
Line
predicates to add:
Angle
predicates to add:
Line
predicates to add:
Line
predicates to add:
Angle
predicates to add:
Line
predicates to add:
Line
predicates to add:
Equation
predicates to add:
Equation
predicates to add:
Equation
predicates to add:
Equation
Verifier result: ERROR_TIER: TIER2_PREMISE_VIOLATION
verification failed.

- Error: You tried to use theorem: circle_property_circular_power_segment_and_segment_angle(1,SRT,RUV,B);Cocircular(B,RUVT)&Collinear(RRT)&Collinear(RUV);['Equal(Sub(MeasureOfArc(BVT),MeasureOfArc(BRU)),Mul(MeasureOfAngle(RRU),2))']
Missing premise: Cocircular(B,RUVT) not established
Details: Accumulated cocircular facts: [('B', 'S'), ('B', 'U'), ('B', 'V'), ('B', 'T'), ('B', 'S', 'U'), ('B', 'S', 'U'), ('B', 'S', 'V'), ('B', 'S', 'V'), ('B', 'S', 'T'), ('B', 'S', 'T'), ('B', 'U', 'V'), ('B', 'U', 'V'), ('B', 'T', 'U'), ('B', 'T', 'U'), ('B', 'T', 'V'), ('B', 'T', 'V'), ('B', 'S', 'U', 'V'), ('B', 'S', 'U', 'V'), ('B', 'S', 'U', 'V'), ('B', 'S', 'U', 'V'), ('B', 'S', 'U', 'V'), ('B', 'S', 'U', 'V'), ('B', 'S', 'T', 'U'), ('B', 'S', 'T', 'U'), ('B', 'S', 'T', 'U'), ('B', 'S', 'T', 'U'), ('B', 'S', 'T', 'U'), ('B', 'S', 'T', 'U'), ('B', 'S', 'T', 'V'), ('B', 'S', 'T', 'V'), ('B', 'S', 'T', 'V'), ('B', 'S', 'T', 'V'), ('B', 'S', 'T', 'V'), ('B', 'S', 'T', 'V'), ('B', 'T', 'U', 'V'), ('B', 'T', 'U', 'V'), ('B', 'T', 'U', 'V'), ('B', 'T', 'U', 'V'), ('B', 'T', 'U', 'V'), ('B', 'T', 'U', 'V'), ('B', 'S', 'T', 'U', 'V'), ('B', 'S', 'T', 'U', 'V'), ('B', 'S', 'T', 'U', 'V'), ('B', 'S', 'T', 'U', 'V'), ('B', 'S', 'T', 'U', 'V'), ('B', 'S', 'T', 'U', 'V'), ('B', 'S', 'T', 'U', 'V')]
- Available premises:
  Collinear Points: RST, RUV
  Cocircular Points: S on circle B, ST on circle B, STU on circle B, STUV on circle B, STV on circle B, SU on circle B, SUV on circle B, SV on circle B, T on circle B, TU on circle B, TUV on circle B, TV on circle B, U on circle B, UV on circle B, V on circle B
- Theorems related to the goal:
  None found that constrain this goal
- Solver constraints directly related to this goal:
  None found

Please fix the proof.
Model Answer:
RETRY_ANSWER:
22
RETRY_THEOREM_SEQUENCE:
1; circle_property_circular_power_segment_and_segment_angle(1,SRT,RUV,B); Cocircular(B,RUVT)&Collinear(RRT)&Collinear(RUV); ["Equal(Sub(MeasureOfArc(BVT),MeasureOfArc(BRU)),Mul(MeasureOfAngle(RRU),2))"]
Retry attempt: 3
Content written to results/level_1/variant_random_all_theorems_model_o1_problem_192_run_0_to_verify.txt
predicates to add:
Line
predicates to add:
Angle
predicates to add:
Line
predicates to add:
Line
predicates to add:
Angle
predicates to add:
Line
predicates to add:
Line
predicates to add:
Line
predicates to add:
Angle
predicates to add:
Line
predicates to add:
Line
predicates to add:
Angle
predicates to add:
Line
predicates to add:
Line
predicates to add:
Circle
predicates to add:
Line
predicates to add:
Angle
predicates to add:
Line
predicates to add:
Line
predicates to add:
Line
predicates to add:
Line
predicates to add:
Line
predicates to add:
Line
predicates to add:
Line
predicates to add:
Line
predicates to add:
Angle
predicates to add:
Line
predicates to add:
Angle
predicates to add:
Line
predicates to add:
Line
predicates to add:
Angle
predicates to add:
Line
predicates to add:
Line
predicates to add:
Line
predicates to add:
Angle
predicates to add:
Line
predicates to add:
Angle
predicates to add:
Line
predicates to add:
Line
predicates to add:
Angle
predicates to add:
Line
predicates to add:
Line
predicates to add:
Angle
predicates to add:
Line
predicates to add:
Angle
predicates to add:
Line
predicates to add:
Angle
predicates to add:
Angle
predicates to add:
Angle
predicates to add:
Angle
predicates to add:
Angle
predicates to add:
Angle
predicates to add:
Line
predicates to add:
Line
predicates to add:
Angle
predicates to add:
Line
predicates to add:
Line
predicates to add:
Angle
predicates to add:
Line
predicates to add:
Line
predicates to add:
Angle
predicates to add:
Angle
predicates to add:
Angle
predicates to add:
Angle
predicates to add:
Angle
predicates to add:
Line
predicates to add:
Line
predicates to add:
Angle
predicates to add:
Line
predicates to add:
Line
predicates to add:
Angle
predicates to add:
Line
predicates to add:
Line
predicates to add:
Angle
predicates to add:
Line
predicates to add:
Line
predicates to add:
Equation
predicates to add:
Equation
predicates to add:
Equation
predicates to add:
Equation
Theorem sequence verified correctly
Content written to results/level_1/variant_random_all_theorems_model_o1_problem_192_run_0.txt
